4 17 10 11 20 13 9 20 12 11 12 9 
12 10 10 5 12 13 20 20 19 1 20 7 
13 5 5 4 2 11 3 8 13 5 3 11 
9 18 10 9 13 2 8 2 15 14 17 1 
17 16 14 19 6 20 14 4 4 12 17 1 
13 2 1 11 4 20 17 19 14 3 17 20 
14 1 2 17 10 5 6 11 15 2 17 7 
13 11 9 10 6 8 5 18 11 6 12 19 
9 17 5 16 2 14 5 19 2 14 14 14 
11 13 8 20 6 20 19 18 2 18 13 9 
20 18 17 2 13 18 18 12 9 15 5 15 
12 4 4 5 7 12 2 18 12 12 18 15 
